NAME: cum30.tsp
TYPE: TSP
COMMENT: User-generated TSP file
DIMENSION: 150
EDGE_WEIGHT_TYPE: EUC_2D
NODE_COORD_SECTION
1 117.0 52.0
2 65.0 69.0
3 127.0 113.0
4 49.0 4.0
5 131.0 149.0
6 65.0 139.0
7 33.0 91.0
8 134.0 62.0
9 16.0 102.0
10 136.0 139.0
11 20.0 32.0
12 124.0 145.0
13 59.0 115.0
14 24.0 122.0
15 90.0 41.0
16 62.0 91.0
17 25.0 37.0
18 93.0 52.0
19 119.0 118.0
20 142.0 150.0
21 6.0 82.0
22 133.0 73.0
23 145.0 68.0
24 95.0 88.0
25 46.0 4.0
26 69.0 52.0
27 84.0 92.0
28 133.0 76.0
29 108.0 123.0
30 94.0 9.0
31 47.0 123.0
32 100.0 25.0
33 8.0 84.0
34 62.0 114.0
35 22.0 15.0
36 130.0 150.0
37 26.0 139.0
38 145.0 136.0
39 96.0 45.0
40 110.0 58.0
41 69.0 134.0
42 18.0 138.0
43 99.0 80.0
44 133.0 25.0
45 50.0 114.0
46 138.0 77.0
47 90.0 57.0
48 67.0 14.0
49 137.0 20.0
50 13.0 72.0
51 40.0 14.0
52 54.0 64.0
53 116.0 67.0
54 85.0 116.0
55 3.0 128.0
56 14.0 23.0
57 40.0 21.0
58 133.0 57.0
59 73.0 56.0
60 21.0 89.0
61 38.0 52.0
62 143.0 67.0
63 38.0 69.0
64 94.0 148.0
65 97.0 144.0
66 37.0 66.0
67 131.0 5.0
68 142.0 81.0
69 73.0 37.0
70 97.0 99.0
71 16.0 30.0
72 7.0 109.0
73 51.0 29.0
74 15.0 49.0
75 89.0 94.0
76 134.0 114.0
77 124.0 132.0
78 84.0 11.0
79 115.0 27.0
80 94.0 94.0
81 89.0 115.0
82 94.0 39.0
83 18.0 35.0
84 120.0 40.0
85 149.0 31.0
86 149.0 4.0
87 16.0 96.0
88 29.0 26.0
89 82.0 78.0
90 36.0 48.0
91 109.0 14.0
92 129.0 84.0
93 49.0 24.0
94 134.0 42.0
95 31.0 15.0
96 145.0 37.0
97 115.0 57.0
98 115.0 68.0
99 82.0 144.0
100 143.0 15.0
101 49.0 96.0
102 25.0 27.0
103 102.0 110.0
104 123.0 63.0
105 64.0 132.0
106 36.0 43.0
107 51.0 35.0
108 142.0 68.0
109 114.0 79.0
110 72.0 52.0
111 57.0 115.0
112 115.0 66.0
113 60.0 34.0
114 48.0 71.0
115 37.0 62.0
116 81.0 48.0
117 8.0 5.0
118 114.0 12.0
119 59.0 114.0
120 72.0 28.0
121 12.0 90.0
122 121.0 7.0
123 8.0 125.0
124 73.0 24.0
125 39.0 45.0
126 116.0 85.0
127 19.0 129.0
128 102.0 6.0
129 73.0 121.0
130 127.0 81.0
131 144.0 25.0
132 50.0 78.0
133 135.0 126.0
134 139.0 139.0
135 15.0 138.0
136 89.0 16.0
137 66.0 28.0
138 88.0 34.0
139 16.0 119.0
140 45.0 73.0
141 75.0 19.0
142 6.0 25.0
143 36.0 102.0
144 128.0 136.0
145 88.0 103.0
146 80.0 108.0
147 82.0 45.0
148 97.0 45.0
149 57.0 73.0
150 2.0 36.0
EOF

